p cnf 196 1
196 0
w 1 0.0402272
w 2 1 1
w 2 -1 0
w 3 2 1
w 3 -2 0
w 4 3 0
w 4 -3 1
w 5 4 1
w 5 -4 0
w 6 5 0
w 6 -5 1
w 7 6 0
w 7 -6 1
w 8 7 0
w 8 -7 1
w 9 8 0
w 9 -8 1
w 10 9 0
w 10 -9 1
w 11 10 0
w 11 -10 1
w 12 11 0
w 12 -11 1
w 13 12 0
w 13 -12 1
w 14 13 0.552623
w 14 -13 0.305476
w 15 1 0
w 15 -1 1
w 16 15 2 0
w 16 15 -2 0
w 16 -15 2 1
w 16 -15 -2 0
w 17 16 3 0
w 17 16 -3 0
w 17 -16 3 1
w 17 -16 -3 1
w 18 17 4 1
w 18 17 -4 0
w 18 -17 4 1
w 18 -17 -4 0
w 19 18 5 0
w 19 18 -5 0
w 19 -18 5 1
w 19 -18 -5 0
w 20 19 6 1
w 20 19 -6 1
w 20 -19 6 0
w 20 -19 -6 1
w 21 20 7 0
w 21 20 -7 1
w 21 -20 7 0
w 21 -20 -7 1
w 22 21 8 0
w 22 21 -8 1
w 22 -21 8 1
w 22 -21 -8 1
w 23 22 9 0
w 23 22 -9 1
w 23 -22 9 0
w 23 -22 -9 1
w 24 23 10 1
w 24 23 -10 1
w 24 -23 10 1
w 24 -23 -10 0
w 25 24 11 1
w 25 24 -11 1
w 25 -24 11 0
w 25 -24 -11 0
w 26 25 12 1
w 26 25 -12 1
w 26 -25 12 1
w 26 -25 -12 0
w 27 26 13 0
w 27 26 -13 1
w 27 -26 13 0
w 27 -26 -13 1
w 28 27 14 0
w 28 27 -14 0
w 28 -27 14 1
w 28 -27 -14 0
w 29 15 0
w 29 -15 1
w 30 29 16 0
w 30 29 -16 1
w 30 -29 16 0
w 30 -29 -16 1
w 31 30 17 1
w 31 30 -17 0
w 31 -30 17 1
w 31 -30 -17 0
w 32 31 18 1
w 32 31 -18 0
w 32 -31 18 0
w 32 -31 -18 1
w 33 32 19 1
w 33 32 -19 0
w 33 -32 19 1
w 33 -32 -19 1
w 34 33 20 0.229514
w 34 33 -20 0.204779
w 34 -33 20 0.652085
w 34 -33 -20 0.301737
w 35 34 21 1
w 35 34 -21 1
w 35 -34 21 0
w 35 -34 -21 1
w 36 35 22 1
w 36 35 -22 1
w 36 -35 22 0
w 36 -35 -22 0
w 37 36 23 1
w 37 36 -23 0
w 37 -36 23 1
w 37 -36 -23 1
w 38 37 24 1
w 38 37 -24 0
w 38 -37 24 0
w 38 -37 -24 0
w 39 38 25 0
w 39 38 -25 0
w 39 -38 25 1
w 39 -38 -25 1
w 40 39 26 0
w 40 39 -26 0
w 40 -39 26 1
w 40 -39 -26 1
w 41 40 27 0
w 41 40 -27 0
w 41 -40 27 1
w 41 -40 -27 1
w 42 41 28 1
w 42 41 -28 1
w 42 -41 28 0
w 42 -41 -28 1
w 43 29 0
w 43 -29 1
w 44 43 30 0
w 44 43 -30 1
w 44 -43 30 0
w 44 -43 -30 0
w 45 44 31 1
w 45 44 -31 0
w 45 -44 31 0
w 45 -44 -31 0
w 46 45 32 1
w 46 45 -32 1
w 46 -45 32 0
w 46 -45 -32 0
w 47 46 33 1
w 47 46 -33 1
w 47 -46 33 0
w 47 -46 -33 1
w 48 47 34 1
w 48 47 -34 1
w 48 -47 34 0
w 48 -47 -34 1
w 49 48 35 0
w 49 48 -35 0
w 49 -48 35 1
w 49 -48 -35 0
w 50 49 36 0
w 50 49 -36 1
w 50 -49 36 1
w 50 -49 -36 1
w 51 50 37 0
w 51 50 -37 0
w 51 -50 37 1
w 51 -50 -37 0
w 52 51 38 0
w 52 51 -38 0
w 52 -51 38 1
w 52 -51 -38 0
w 53 52 39 0.8926
w 53 52 -39 0.00542345
w 53 -52 39 0.196794
w 53 -52 -39 0.924715
w 54 53 40 1
w 54 53 -40 1
w 54 -53 40 1
w 54 -53 -40 0
w 55 54 41 0
w 55 54 -41 1
w 55 -54 41 1
w 55 -54 -41 1
w 56 55 42 0
w 56 55 -42 1
w 56 -55 42 0
w 56 -55 -42 0
w 57 43 0.195393
w 57 -43 0.902077
w 58 57 44 0
w 58 57 -44 0
w 58 -57 44 1
w 58 -57 -44 0
w 59 58 45 0
w 59 58 -45 0
w 59 -58 45 0
w 59 -58 -45 1
w 60 59 46 1
w 60 59 -46 0
w 60 -59 46 0
w 60 -59 -46 0
w 61 60 47 0
w 61 60 -47 0
w 61 -60 47 0
w 61 -60 -47 1
w 62 61 48 1
w 62 61 -48 1
w 62 -61 48 1
w 62 -61 -48 0
w 63 62 49 1
w 63 62 -49 0
w 63 -62 49 0
w 63 -62 -49 1
w 64 63 50 1
w 64 63 -50 0
w 64 -63 50 1
w 64 -63 -50 1
w 65 64 51 0
w 65 64 -51 1
w 65 -64 51 1
w 65 -64 -51 1
w 66 65 52 0
w 66 65 -52 1
w 66 -65 52 1
w 66 -65 -52 1
w 67 66 53 0
w 67 66 -53 1
w 67 -66 53 1
w 67 -66 -53 1
w 68 67 54 0
w 68 67 -54 1
w 68 -67 54 1
w 68 -67 -54 0
w 69 68 55 1
w 69 68 -55 1
w 69 -68 55 0
w 69 -68 -55 0
w 70 69 56 1
w 70 69 -56 0
w 70 -69 56 0
w 70 -69 -56 0
w 71 57 1
w 71 -57 0
w 72 71 58 0
w 72 71 -58 0
w 72 -71 58 0
w 72 -71 -58 1
w 73 72 59 1
w 73 72 -59 1
w 73 -72 59 0
w 73 -72 -59 1
w 74 73 60 1
w 74 73 -60 0
w 74 -73 60 0
w 74 -73 -60 1
w 75 74 61 1
w 75 74 -61 0
w 75 -74 61 1
w 75 -74 -61 1
w 76 75 62 0
w 76 75 -62 1
w 76 -75 62 0
w 76 -75 -62 1
w 77 76 63 0.541279
w 77 76 -63 0.975817
w 77 -76 63 0.357564
w 77 -76 -63 0.731202
w 78 77 64 0
w 78 77 -64 1
w 78 -77 64 0
w 78 -77 -64 0
w 79 78 65 0.00415594
w 79 78 -65 0.0246317
w 79 -78 65 0.32439
w 79 -78 -65 0.877637
w 80 79 66 1
w 80 79 -66 0
w 80 -79 66 1
w 80 -79 -66 1
w 81 80 67 0
w 81 80 -67 1
w 81 -80 67 0
w 81 -80 -67 0
w 82 81 68 1
w 82 81 -68 0
w 82 -81 68 1
w 82 -81 -68 1
w 83 82 69 1
w 83 82 -69 0
w 83 -82 69 0
w 83 -82 -69 0
w 84 83 70 0
w 84 83 -70 1
w 84 -83 70 1
w 84 -83 -70 1
w 85 71 0
w 85 -71 1
w 86 85 72 0.77051
w 86 85 -72 0.851983
w 86 -85 72 0.866601
w 86 -85 -72 0.566512
w 87 86 73 0
w 87 86 -73 1
w 87 -86 73 0
w 87 -86 -73 0
w 88 87 74 1
w 88 87 -74 0
w 88 -87 74 0
w 88 -87 -74 1
w 89 88 75 0
w 89 88 -75 0
w 89 -88 75 1
w 89 -88 -75 0
w 90 89 76 0.981377
w 90 89 -76 0.332528
w 90 -89 76 0.568928
w 90 -89 -76 0.547819
w 91 90 77 1
w 91 90 -77 1
w 91 -90 77 0
w 91 -90 -77 1
w 92 91 78 0
w 92 91 -78 0
w 92 -91 78 1
w 92 -91 -78 0
w 93 92 79 0
w 93 92 -79 1
w 93 -92 79 1
w 93 -92 -79 1
w 94 93 80 0.266701
w 94 93 -80 0.688314
w 94 -93 80 0.427763
w 94 -93 -80 0.866878
w 95 94 81 0.279941
w 95 94 -81 0.745175
w 95 -94 81 0.644092
w 95 -94 -81 0.426079
w 96 95 82 0
w 96 95 -82 0
w 96 -95 82 0
w 96 -95 -82 1
w 97 96 83 0.186945
w 97 96 -83 0.819966
w 97 -96 83 0.0438263
w 97 -96 -83 0.663492
w 98 97 84 0
w 98 97 -84 0
w 98 -97 84 1
w 98 -97 -84 1
w 99 85 1
w 99 -85 0
w 100 99 86 1
w 100 99 -86 1
w 100 -99 86 1
w 100 -99 -86 0
w 101 100 87 1
w 101 100 -87 1
w 101 -100 87 0
w 101 -100 -87 1
w 102 101 88 0.164986
w 102 101 -88 0.440367
w 102 -101 88 0.329481
w 102 -101 -88 0.527664
w 103 102 89 0
w 103 102 -89 0
w 103 -102 89 1
w 103 -102 -89 1
w 104 103 90 0
w 104 103 -90 1
w 104 -103 90 1
w 104 -103 -90 1
w 105 104 91 1
w 105 104 -91 1
w 105 -104 91 1
w 105 -104 -91 0
w 106 105 92 1
w 106 105 -92 1
w 106 -105 92 1
w 106 -105 -92 0
w 107 106 93 0
w 107 106 -93 1
w 107 -106 93 1
w 107 -106 -93 0
w 108 107 94 1
w 108 107 -94 0
w 108 -107 94 1
w 108 -107 -94 1
w 109 108 95 1
w 109 108 -95 1
w 109 -108 95 0
w 109 -108 -95 1
w 110 109 96 0
w 110 109 -96 1
w 110 -109 96 1
w 110 -109 -96 0
w 111 110 97 1
w 111 110 -97 1
w 111 -110 97 1
w 111 -110 -97 0
w 112 111 98 0
w 112 111 -98 1
w 112 -111 98 1
w 112 -111 -98 1
w 113 99 1
w 113 -99 0
w 114 113 100 0
w 114 113 -100 0
w 114 -113 100 1
w 114 -113 -100 1
w 115 114 101 1
w 115 114 -101 0
w 115 -114 101 1
w 115 -114 -101 1
w 116 115 102 0
w 116 115 -102 0
w 116 -115 102 1
w 116 -115 -102 0
w 117 116 103 0.693463
w 117 116 -103 0.620953
w 117 -116 103 0.428041
w 117 -116 -103 0.879081
w 118 117 104 0
w 118 117 -104 0
w 118 -117 104 0
w 118 -117 -104 1
w 119 118 105 1
w 119 118 -105 0
w 119 -118 105 1
w 119 -118 -105 0
w 120 119 106 0.574864
w 120 119 -106 0.923793
w 120 -119 106 0.959857
w 120 -119 -106 0.0904792
w 121 120 107 0
w 121 120 -107 0
w 121 -120 107 1
w 121 -120 -107 1
w 122 121 108 1
w 122 121 -108 1
w 122 -121 108 1
w 122 -121 -108 0
w 123 122 109 1
w 123 122 -109 0
w 123 -122 109 0
w 123 -122 -109 0
w 124 123 110 0
w 124 123 -110 0
w 124 -123 110 1
w 124 -123 -110 0
w 125 124 111 1
w 125 124 -111 0
w 125 -124 111 0
w 125 -124 -111 1
w 126 125 112 1
w 126 125 -112 0
w 126 -125 112 0
w 126 -125 -112 1
w 127 113 0
w 127 -113 1
w 128 127 114 0.535124
w 128 127 -114 0.0884533
w 128 -127 114 0.315028
w 128 -127 -114 0.400181
w 129 128 115 0
w 129 128 -115 1
w 129 -128 115 1
w 129 -128 -115 0
w 130 129 116 1
w 130 129 -116 1
w 130 -129 116 1
w 130 -129 -116 0
w 131 130 117 0
w 131 130 -117 0
w 131 -130 117 1
w 131 -130 -117 0
w 132 131 118 0
w 132 131 -118 1
w 132 -131 118 0
w 132 -131 -118 0
w 133 132 119 0
w 133 132 -119 1
w 133 -132 119 0
w 133 -132 -119 0
w 134 133 120 0.550889
w 134 133 -120 0.43359
w 134 -133 120 0.29616
w 134 -133 -120 0.951071
w 135 134 121 0
w 135 134 -121 0
w 135 -134 121 0
w 135 -134 -121 1
w 136 135 122 1
w 136 135 -122 0
w 136 -135 122 0
w 136 -135 -122 1
w 137 136 123 0
w 137 136 -123 0
w 137 -136 123 1
w 137 -136 -123 1
w 138 137 124 0.694398
w 138 137 -124 0.866454
w 138 -137 124 0.771524
w 138 -137 -124 0.686618
w 139 138 125 0
w 139 138 -125 0
w 139 -138 125 1
w 139 -138 -125 0
w 140 139 126 1
w 140 139 -126 0
w 140 -139 126 1
w 140 -139 -126 0
w 141 127 1
w 141 -127 0
w 142 141 128 0
w 142 141 -128 0
w 142 -141 128 0
w 142 -141 -128 1
w 143 142 129 1
w 143 142 -129 1
w 143 -142 129 0
w 143 -142 -129 1
w 144 143 130 1
w 144 143 -130 0
w 144 -143 130 0
w 144 -143 -130 0
w 145 144 131 1
w 145 144 -131 1
w 145 -144 131 1
w 145 -144 -131 0
w 146 145 132 1
w 146 145 -132 0
w 146 -145 132 1
w 146 -145 -132 1
w 147 146 133 0.646466
w 147 146 -133 0.0598885
w 147 -146 133 0.878854
w 147 -146 -133 0.0727735
w 148 147 134 1
w 148 147 -134 0
w 148 -147 134 0
w 148 -147 -134 0
w 149 148 135 1
w 149 148 -135 0
w 149 -148 135 0
w 149 -148 -135 0
w 150 149 136 1
w 150 149 -136 0
w 150 -149 136 0
w 150 -149 -136 1
w 151 150 137 1
w 151 150 -137 0
w 151 -150 137 0
w 151 -150 -137 0
w 152 151 138 1
w 152 151 -138 0
w 152 -151 138 0
w 152 -151 -138 0
w 153 152 139 1
w 153 152 -139 0
w 153 -152 139 1
w 153 -152 -139 0
w 154 153 140 1
w 154 153 -140 0
w 154 -153 140 0
w 154 -153 -140 1
w 155 141 0.517663
w 155 -141 0.347448
w 156 155 142 0
w 156 155 -142 0
w 156 -155 142 1
w 156 -155 -142 1
w 157 156 143 0.983599
w 157 156 -143 0.868973
w 157 -156 143 0.348584
w 157 -156 -143 0.750424
w 158 157 144 0.515663
w 158 157 -144 0.260111
w 158 -157 144 0.10336
w 158 -157 -144 0.861396
w 159 158 145 1
w 159 158 -145 0
w 159 -158 145 1
w 159 -158 -145 0
w 160 159 146 0
w 160 159 -146 1
w 160 -159 146 0
w 160 -159 -146 1
w 161 160 147 0
w 161 160 -147 0
w 161 -160 147 1
w 161 -160 -147 0
w 162 161 148 0
w 162 161 -148 0
w 162 -161 148 0
w 162 -161 -148 1
w 163 162 149 1
w 163 162 -149 0
w 163 -162 149 1
w 163 -162 -149 1
w 164 163 150 0
w 164 163 -150 1
w 164 -163 150 1
w 164 -163 -150 1
w 165 164 151 0
w 165 164 -151 0
w 165 -164 151 1
w 165 -164 -151 1
w 166 165 152 1
w 166 165 -152 1
w 166 -165 152 0
w 166 -165 -152 1
w 167 166 153 1
w 167 166 -153 1
w 167 -166 153 0
w 167 -166 -153 0
w 168 167 154 0
w 168 167 -154 0
w 168 -167 154 1
w 168 -167 -154 1
w 169 155 0
w 169 -155 1
w 170 169 156 0
w 170 169 -156 1
w 170 -169 156 0
w 170 -169 -156 1
w 171 170 157 1
w 171 170 -157 0
w 171 -170 157 1
w 171 -170 -157 0
w 172 171 158 0
w 172 171 -158 1
w 172 -171 158 0
w 172 -171 -158 1
w 173 172 159 0.0894103
w 173 172 -159 0.159771
w 173 -172 159 0.620854
w 173 -172 -159 0.504095
w 174 173 160 0
w 174 173 -160 1
w 174 -173 160 0
w 174 -173 -160 1
w 175 174 161 1
w 175 174 -161 0
w 175 -174 161 0
w 175 -174 -161 0
w 176 175 162 1
w 176 175 -162 0
w 176 -175 162 0
w 176 -175 -162 1
w 177 176 163 0
w 177 176 -163 0
w 177 -176 163 0
w 177 -176 -163 1
w 178 177 164 1
w 178 177 -164 1
w 178 -177 164 0
w 178 -177 -164 0
w 179 178 165 1
w 179 178 -165 0
w 179 -178 165 1
w 179 -178 -165 0
w 180 179 166 1
w 180 179 -166 1
w 180 -179 166 1
w 180 -179 -166 0
w 181 180 167 1
w 181 180 -167 1
w 181 -180 167 1
w 181 -180 -167 0
w 182 181 168 0
w 182 181 -168 0
w 182 -181 168 1
w 182 -181 -168 1
w 183 169 0.216628
w 183 -169 0.0880429
w 184 183 170 1
w 184 183 -170 1
w 184 -183 170 0
w 184 -183 -170 0
w 185 184 171 0.549747
w 185 184 -171 0.34766
w 185 -184 171 0.753377
w 185 -184 -171 0.880417
w 186 185 172 1
w 186 185 -172 0
w 186 -185 172 0
w 186 -185 -172 0
w 187 186 173 0.448561
w 187 186 -173 0.137023
w 187 -186 173 0.518781
w 187 -186 -173 0.256778
w 188 187 174 0
w 188 187 -174 0
w 188 -187 174 1
w 188 -187 -174 1
w 189 188 175 0
w 189 188 -175 0
w 189 -188 175 1
w 189 -188 -175 0
w 190 189 176 1
w 190 189 -176 1
w 190 -189 176 1
w 190 -189 -176 0
w 191 190 177 0
w 191 190 -177 1
w 191 -190 177 1
w 191 -190 -177 1
w 192 191 178 1
w 192 191 -178 1
w 192 -191 178 0
w 192 -191 -178 1
w 193 192 179 1
w 193 192 -179 0
w 193 -192 179 0
w 193 -192 -179 0
w 194 193 180 0
w 194 193 -180 1
w 194 -193 180 0
w 194 -193 -180 1
w 195 194 181 0
w 195 194 -181 1
w 195 -194 181 0
w 195 -194 -181 1
w 196 195 182 1
w 196 195 -182 0
w 196 -195 182 1
w 196 -195 -182 0